    1C
    1USimple 1-element block test                                       
    1UUSER                                                              
    1UDATE              26.august.2025                                  
    1UTIME              11:08:01                                        
    1UHOST                                                              
    1UPGM               CalculiX                                        
    1UVERSION           Version 2.22                             
    1UCOMPILETIME       Mon Aug  5 19:15:25 CEST 2024                    
    1UDIR                                                               
    1UDBN                                                               
    1UMAT    1STEEL                                                     
    2C                             8                                     1
 -1         1 0.00000E+00 0.00000E+00 0.00000E+00
 -1         2 1.00000E+00 0.00000E+00 0.00000E+00
 -1         3 1.00000E+00 1.00000E+00 0.00000E+00
 -1         4 0.00000E+00 1.00000E+00 0.00000E+00
 -1         5 0.00000E+00 0.00000E+00 1.00000E+00
 -1         6 1.00000E+00 0.00000E+00 1.00000E+00
 -1         7 1.00000E+00 1.00000E+00 1.00000E+00
 -1         8 0.00000E+00 1.00000E+00 1.00000E+00
 -3
    3C                             1                                     1
 -1         1    1    0    1
 -2         1         2         3         4         5         6         7         8
 -3
    1PSTEP                         1           1           1          
  100CL  101 1.000000000           8                     0    1           1
 -4  DISP        4    1
 -5  D1          1    2    1    0
 -5  D2          1    2    2    0
 -5  D3          1    2    3    0
 -5  ALL         1    2    0    0    1ALL
 -1         1 0.00000E+00 0.00000E+00 0.00000E+00
 -1         2-4.33333E-03-9.28571E-04-9.28571E-04
 -1         3-4.33333E-03 9.28571E-04-9.28571E-04
 -1         4 0.00000E+00 0.00000E+00 0.00000E+00
 -1         5 0.00000E+00 0.00000E+00 0.00000E+00
 -1         6-4.33333E-03-9.28571E-04 9.28571E-04
 -1         7-4.33333E-03 9.28571E-04 9.28571E-04
 -1         8 0.00000E+00 0.00000E+00 0.00000E+00
 -3
    1PSTEP                         2           1           1          
  100CL  101 1.000000000           8                     0    1           1
 -4  STRESS      6    1
 -5  SXX         1    4    1    1
 -5  SYY         1    4    2    2
 -5  SZZ         1    4    3    3
 -5  SXY         1    4    1    2
 -5  SYZ         1    4    2    3
 -5  SZX         1    4    3    1
 -1         1-1.22496E+03-5.24992E+02-5.24992E+02-7.49995E+01-1.53909E-15-7.49995E+01
 -1         2-7.74961E+02 2.25004E+02 2.25004E+02-7.49995E+01-7.46073E-14-7.49995E+01
 -1         3-7.74961E+02 2.25004E+02 2.25004E+02 7.49995E+01-6.94804E-15-7.49995E+01
 -1         4-1.22496E+03-5.24992E+02-5.24992E+02 7.49995E+01-2.84047E-15-7.49995E+01
 -1         5-1.22496E+03-5.24992E+02-5.24992E+02-7.49995E+01-1.26022E-15 7.49995E+01
 -1         6-7.74961E+02 2.25004E+02 2.25004E+02-7.49995E+01-8.91057E-14 7.49995E+01
 -1         7-7.74961E+02 2.25004E+02 2.25004E+02 7.49995E+01-2.14464E-14 7.49995E+01
 -1         8-1.22496E+03-5.24992E+02-5.24992E+02 7.49995E+01-2.56160E-15 7.49995E+01
 -3
    1PSTEP                         3           1           1          
  100CL  101 1.000000000           8                     0    1           1
 -4  TOSTRAIN    6    1
 -5  EXX         1    4    1    1
 -5  EYY         1    4    2    2
 -5  EZZ         1    4    3    3
 -5  EXY         1    4    1    2
 -5  EYZ         1    4    2    3
 -5  EZX         1    4    3    1
 -1         1-4.33316E-03-3.13488E-08-3.13488E-08-4.64283E-04-9.52770E-21-4.64283E-04
 -1         2-4.33316E-03 1.85710E-03 1.85710E-03-4.64283E-04-4.61854E-19-4.64283E-04
 -1         3-4.33316E-03 1.85710E-03 1.85710E-03 4.64283E-04-4.30117E-20-4.64283E-04
 -1         4-4.33316E-03-3.13488E-08-3.13488E-08 4.64283E-04-1.75839E-20-4.64283E-04
 -1         5-4.33316E-03-3.13488E-08-3.13488E-08-4.64283E-04-7.80138E-21 4.64283E-04
 -1         6-4.33316E-03 1.85710E-03 1.85710E-03-4.64283E-04-5.51606E-19 4.64283E-04
 -1         7-4.33316E-03 1.85710E-03 1.85710E-03 4.64283E-04-1.32764E-19 4.64283E-04
 -1         8-4.33316E-03-3.13488E-08-3.13488E-08 4.64283E-04-1.58575E-20 4.64283E-04
 -3
    1PSTEP                         4           1           1          
  100CL  101 1.000000000           8                     0    1           1
 -4  ERROR       1    1
 -5  STR(%)      1    1    0    0
 -1         1 1.12061E+01
 -1         2 1.12061E+01
 -1         3 1.12061E+01
 -1         4 1.12061E+01
 -1         5 1.12061E+01
 -1         6 1.12061E+01
 -1         7 1.12061E+01
 -1         8 1.12061E+01
 -3
 9999
